678734
56,18,92,53,100,216,66,24,141,128,41,222,77,149,115,2,230,104,212,45,204,172,168,93,213,52,221,59,58,139,11,197,143,76,57,95,79,167,188,124,85,123,25,80,132,182,61,148,131,173,181,195,136,206,218,70,86,119,193,84,29,174,164,154,65,200,198,10,114,126,209,73,113,160,42,98,51,226,69,177,122,152,191,201,14,110,8,30,220,44,64,5,156,211,145,144,26,22,91,96,68,9,166,101,184,116,161,107,89,196,179,192,37,34,205,75,215,78,55,151,28,50,108,94,35,87,62,102,130,81,40,169,27,112,155,133,229,36,183,20,117,210,7,63,32,72,1,162,135,140,71,118,49,67,207,39,74,83,157,43,31,127,147,163,178,199,23,159,208,3,138,185,189,16,60,137,15,120,97,194,165,214,46,125,227,19,134,111,48,13,225,47,17,176,223,6,203,38,224,33,129,153,217,21,4,142,170,90,150,171,186,109,228,88,146,12,187,103,82,158,180,121,106,219,190,99,202,105,175,54,56